Version identifier: 22.1.0.0 | 2022-03-09 | 1a383f8ce
CPXPARAM_Read_DataCheck                          1
CPXPARAM_TimeLimit                               600
Tried aggregator 4 times.
MIP Presolve eliminated 225650 rows and 15776 columns.
MIP Presolve modified 2050 coefficients.
Aggregator did 213606 substitutions.
Reduced MIP has 17219 rows, 216868 columns, and 451415 nonzeros.
Reduced MIP has 216818 binaries, 50 generals, 0 SOSs, and 0 indicators.
Presolve time = 3.55 sec. (3602.94 ticks)
Tried aggregator 1 time.
Detecting symmetries...
Reduced MIP has 17219 rows, 216868 columns, and 451415 nonzeros.
Reduced MIP has 216818 binaries, 50 generals, 0 SOSs, and 0 indicators.
Presolve time = 0.68 sec. (360.08 ticks)
Probing fixed 76 vars, tightened 0 bounds.
Probing time = 1.44 sec. (123.54 ticks)
Clique table members: 437584.
MIP emphasis: balance optimality and feasibility.
MIP search method: dynamic search.
Parallel mode: deterministic, using up to 8 threads.
Root relaxation solution time = 4.76 sec. (1474.85 ticks)

        Nodes                                         Cuts/
   Node  Left     Objective  IInf  Best Integer    Best Bound    ItCnt     Gap

      0     0       50.4248 13235                     50.4248       27         
      0     0       85.0000  1242                   Fract: 35    35884         
      0     0       85.0000  1147                    Cuts: 99    66020         
      0     0       85.0000  1190                    Cuts: 52    92165         

Clique cuts applied:  3
Zero-half cuts applied:  110
Lift and project cuts applied:  7
Gomory fractional cuts applied:  38

Root node processing (before b&c):
  Real time             =  600.07 sec. (236826.27 ticks)
Parallel b&c, 8 threads:
  Real time             =    0.00 sec. (0.00 ticks)
  Sync time (average)   =    0.00 sec.
  Wait time (average)   =    0.00 sec.
                          ------------
Total (root+branch&cut) =  600.07 sec. (236826.27 ticks)
